HUN,8,6,792
2,29,1,15,0,28,5,7,4,13,3,28
2,2,1,7,0,5,5,6,3,1,4,20
2,18,1,4,0,17,4,26,3,19,5,14
1,8,2,20,0,14,5,22,3,15,4,12
0,14,2,30,1,14,3,16,4,21,5,21
1,9,0,29,2,18,4,28,5,10,3,3
0,12,1,3,2,26,5,9,3,7,4,2
2,22,1,24,0,16,5,22,4,10,3,6
